100
32
4
28
30
22
13
20
24
21
23
5
15
5
5
19
25
21
8
10
30
6
9
32
14
7
20
7
25
25
11
3
9
16
2
9
17
15
2
11
25
26
9
1
9
17
17
2
17
7
1
1
16
6
19
2
5
4
5
1
3
4
5
1
2
10
3
4
21
3
1
1
4
1
12
18
8
1
27
2
1
3
5
2
2
3
18
1
3
3
2
2
1
3
3
1
2
6
5
3
1
1